p cnf 30 10
5 -16 -3 0
1 2 3 4 5 6 7 8 9 10 11 12 13 14 15 16 17 18 19 20 21 22 23 24 25 26 27 28 29 30 0
25 29 -19 0
9 29 1 0
-1 -2 -3 -4 -5 -6 -7 -8 -9 -10 -11 -12 -13 -14 -15 -16 -17 -18 -19 -20 -21 -22 -23 -24 -25 -26 -27 -28 -29 -30 0
13 10 -10 0
-9 30 -10 0
-9 28 2 0
-15 -3 3 0
3 -17 19 0
